131 5
10 10 10 10 10 

0 0 0 0 0 0 1 2 
0 0 0 0 0 0 1 3 
3 0 0 0 5 0 2 12 4 
1 0 0 0 4 0 3 11 6 5 
1 0 0 0 8 0 3 10 9 7 
4 0 0 0 7 0 2 9 8 
2 0 0 0 8 0 1 8 
9 0 0 0 10 0 1 13 
8 0 0 0 8 0 1 13 
8 0 0 0 9 0 1 13 
4 0 0 0 6 0 1 13 
1 0 0 0 10 0 1 13 
0 0 0 0 0 0 2 14 36 
0 0 0 0 0 0 1 15 
8 0 1 0 4 0 1 16 
4 0 8 0 8 0 2 18 17 
8 0 9 0 4 0 2 20 19 
8 0 4 0 5 0 1 19 
8 0 10 0 8 0 2 23 21 
1 0 8 0 7 0 4 25 24 23 22 
7 0 10 0 10 0 3 25 24 22 
3 0 5 0 8 0 3 29 27 26 
4 0 8 0 7 0 4 29 27 26 103 
4 0 6 0 10 0 2 27 26 
10 0 10 0 6 0 1 26 
1 0 9 0 8 0 2 30 28 
7 0 8 0 10 0 2 30 28 
5 0 7 0 8 0 2 34 31 
5 0 10 0 10 0 2 34 30 
3 0 10 0 8 0 2 33 32 
2 0 6 0 5 0 2 33 32 
10 0 7 0 9 0 1 35 
9 0 4 0 7 0 1 35 
3 0 10 0 8 0 1 35 
0 0 0 0 0 0 1 108 
0 0 0 0 0 0 4 37 38 39 40 
5 2 0 0 0 0 2 43 41 
3 8 0 0 0 0 2 45 42 
2 6 0 0 0 0 2 45 44 
3 8 0 0 0 0 2 45 44 
8 9 0 0 0 0 1 42 
6 6 0 0 0 0 2 44 68 
1 10 0 0 0 0 1 45 
10 7 0 0 0 0 1 46 
4 9 0 0 0 0 1 46 
8 10 0 0 0 0 1 47 
0 0 0 0 0 0 5 48 60 72 84 96 
0 0 0 0 0 0 1 49 
10 0 6 0 0 0 3 58 57 50 
1 0 6 0 0 0 2 56 51 
5 0 3 0 0 0 3 55 54 52 
8 0 10 0 0 0 2 53 69 
7 0 8 0 0 0 1 59 
9 0 8 0 0 0 1 59 
6 0 7 0 0 0 1 59 
3 0 10 0 0 0 1 59 
3 0 7 0 0 0 1 59 
7 0 10 0 0 0 1 59 
0 0 0 0 0 0 1 108 
0 0 0 0 0 0 1 61 
4 3 0 0 0 0 3 64 63 62 
2 10 0 0 0 0 2 66 65 
7 8 0 0 0 0 1 65 
9 5 0 0 0 0 1 65 
1 4 0 0 0 0 2 68 67 
5 10 0 0 0 0 2 68 67 
2 8 0 0 0 0 2 70 69 
10 8 0 0 0 0 1 69 
10 9 0 0 0 0 1 71 
3 10 0 0 0 0 1 71 
0 0 0 0 0 0 1 108 
0 0 0 0 0 0 6 73 74 76 78 81 82 
7 1 0 0 0 0 1 75 
3 9 0 0 0 0 1 75 
10 4 0 0 0 0 1 77 
8 10 0 0 0 0 1 77 
7 8 0 0 0 0 1 79 
2 10 0 0 0 0 1 79 
7 8 0 0 0 0 1 80 
2 9 0 0 0 0 1 83 
8 8 0 0 0 0 1 83 
1 8 0 0 0 0 1 83 
0 0 0 0 0 0 1 108 
0 0 0 0 0 0 3 85 86 88 
9 0 0 0 0 4 3 92 90 87 
10 0 0 0 0 10 2 92 89 
3 0 0 0 0 6 1 89 
2 0 0 0 0 7 1 89 
5 0 0 0 0 10 2 93 91 
1 0 0 0 0 6 2 94 93 
6 0 0 0 0 8 1 94 
1 0 0 0 0 9 1 93 
7 0 0 0 0 6 1 95 
8 0 0 0 0 9 1 95 
0 0 0 0 0 0 1 108 
0 0 0 0 0 0 3 97 98 99 
6 0 6 0 0 0 3 102 101 100 
5 0 9 0 0 0 3 102 101 100 
6 0 4 0 0 0 2 101 100 
6 0 10 0 0 0 2 105 103 
7 0 7 0 0 0 2 105 103 
10 0 10 0 0 0 2 105 103 
5 0 7 0 0 0 1 104 
8 0 6 0 0 0 1 106 
8 0 7 0 0 0 1 106 
9 0 9 0 0 0 1 107 
0 0 0 0 0 0 1 108 
0 0 0 0 0 0 3 109 111 113 
1 0 0 1 0 0 1 110 
3 0 0 10 0 0 2 114 112 
5 0 0 5 0 0 3 118 117 116 
7 0 0 10 0 0 2 116 115 
1 0 0 9 0 0 2 116 115 
1 0 0 7 0 0 2 118 116 
7 0 0 6 0 0 1 117 
6 0 0 8 0 0 1 119 
4 0 0 9 0 0 1 119 
10 0 0 10 0 0 1 119 
0 0 0 0 0 0 1 120 
0 0 0 0 0 0 2 121 122 
8 0 0 0 0 1 2 125 123 
5 0 0 0 0 7 2 125 123 
6 0 0 0 0 10 1 124 
5 0 0 0 0 4 3 128 127 126 
2 0 0 0 0 8 2 127 126 
5 0 0 0 0 10 1 129 
7 0 0 0 0 10 1 129 
1 0 0 0 0 10 1 130 
10 0 0 0 0 7 1 131 
7 0 0 0 0 8 1 131 
0 0 0 0 0 0 0 
